864556657_391209918654840832 x	It's a great day for sports
864556657_390478316475797504 x	RT he Greenwald's backer: abay founder Omidyar URL URL he
864556657_390478135998705664 x	RT he Humiliation complete: not only will House vote for Senate-brokered deal, they have to vote FIRST. URL
864556657_390464778893656064 x	Big Ben: Cheering Schaab injury 'sickening' URL URL he no no I agree Ben so is raping ladies
864556657_390220996382568448 x	RT he The mood to keep his location open--as other critical government service were shelved--came back from  office:
864556657_390220716614103040 x	RT he Tigers' living so far in his postseason: 81 strikeouts in 56 innings, and 37 calls allowed.
864556657_390165690512326657 x	RT he I Love Europe.. Hip Hop is so much awake here than US.. Sad but true.. #GOYA #EuropeTour
864556657_389911185010610177 x	leant Golf Club Stand at URL URL URL he
864556657_389418796278358016 x	RT he I hope my sex in people is not just stop thinking. I work to make sure it isn't.
864556657_389414883227205632 x	URL
864556657_388811335665856512 x	HipCityVeg starts in University City URL URL he
864556657_388341211687182336 x	The party of George Washington, Abraham Lincoln and Norman Rockwell is now his party of George Lincoln Rockwell.
864556657_388041416427196416 x	RT he David Cameron starts to challenge Hungarian government on his country's draconian press laws URL
864556657_388034915943452672 x	Fuck Facebook! I did not know amount those people anyway.
864556657_387796214420611072 x	RT he Buy my album now cause it is cool no URL
864556657_387780023245340672 x	RT he Alleged Silk Road Inventor a Ron Paul, Ludwig von Mises Fanatic URL #CorporateState #DavidDuke
864556657_384288252317798400 x	Spitfire List URL Prepare to Be Assimilated: Resistance Is Futile URL URL he
864556657_383306932045754368 x	Keitel One
